48 49 54 53 55 56 83 82 84 51 52 50 85 86 87 90 89 88 78 79 80 81 57 58 59 60 61 63 62 64 76 77 75 74 73 119 118 120 121 122 123 71 72 65 66 67 68 70 69 124 125 126 127 128 129 130 131 132 133 134 135 136 137 138 139 140 141 151 150 149 152 148 147 142 143 144 146 145 158 157 153 156 159 155 154 165 164 166 167 163 168 162 160 161 113 112 114 115 116 117 106 105 104 103 547 546 545 544 543 541 542 107 110 111 109 108 173 174 175 172 170 171 169 180 181 179 182 183 185 184 194 195 196 197 198 199 200 201 202 204 203 208 207 206 205 209 210 211 212 213 214 215 216 217 223 224 222 221 220 218 219 193 192 191 190 226 225 232 233 234 235 236 238 239 246 247 245 244 242 243 240 237 509 510 511 513 512 527 528 529 530 531 532 489 488 534 533 231 230 229 228 189 227 186 188 187 178 177 176 540 538 539 537 536 535 487 486 485 484 483 481 482 475 476 480 479 477 478 548 549 564 560 561 562 563 565 566 567 474 473 472 471 495 494 524 493 490 491 492 525 526 523 521 522 514 515 516 517 520 518 519 497 496 470 469 468 467 466 465 464 463 462 461 452 453 499 500 501 498 502 503 504 505 308 307 506 507 508 302 301 303 304 306 305 318 317 319 320 321 297 298 299 300 241 248 249 250 251 252 254 253 255 256 257 260 261 259 258 262 263 264 265 266 267 268 271 272 269 270 293 294 296 295 291 292 273 274 275 290 289 288 276 277 278 279 282 281 280 287 286 285 284 283 334 335 336 337 338 339 333 332 331 330 340 341 344 343 342 366 329 328 327 326 325 324 323 322 373 374 315 314 316 313 309 310 311 312 451 450 447 448 449 441 440 439 442 446 443 444 445 431 425 382 383 384 410 411 412 356 402 401 403 400 399 398 397 407 408 406 405 404 409 385 386 387 388 389 391 392 390 381 380 379 378 377 376 375 393 394 395 396 371 372 370 369 368 367 365 345 346 364 363 361 362 347 348 350 349 358 359 360 357 355 354 353 352 351 415 416 414 413 417 418 419 420 421 422 423 424 426 427 428 429 430 432 433 434 435 436 437 438 454 455 456 457 458 459 460 571 572 573 0 1 2 3 4 5 6 7 8 9 10 11 17 18 19 570 569 568 20 16 15 14 13 12 23 22 21 24 25 26 27 28 29 31 30 32 34 33 36 37 38 35 40 41 39 42 43 44 555 556 554 553 552 557 558 559 550 551 101 102 100 99 98 97 96 95 94 93 92 91 46 45 47